GLPSOL--GLPK LP/MIP Solver 5.0
Parameter(s) specified in the command line:
 -m ../GLPK/GraphColoringGLPK.mod -d queen11_11.col.dat -o ../sol/queen11_11.col.dat.sol
Reading model section from ../GLPK/GraphColoringGLPK.mod...
../GLPK/GraphColoringGLPK.mod:28: warning: unexpected end of file; missing end statement inserted
28 lines were read
Reading data section from queen11_11.col.dat...
queen11_11.col.dat:123: duplicate tuple (2,1) detected
Context:  ( 2 , 101 ) ( 101 , 2 ) ( 2 , 112 ) ( 112 , 2 ) ( 2 , 1 ) (
MathProg model processing error
